NAME : mEgtspf.pid7350.gtsp.161061384.tour
COMMENT : Length = 161061384
COMMENT : Found by LKH [Keld Helsgaun] Mon Apr 21 16:59:13 2025
TYPE : TOUR
DIMENSION : 90
TOUR_SECTION
1
34
31
32
33
89
90
87
88
60
61
62
59
9
22
19
20
21
79
80
81
82
4
83
84
85
86
12
13
14
11
48
49
50
47
42
39
40
41
75
76
77
78
7
67
68
69
70
5
23
24
25
26
3
58
55
56
57
17
18
15
16
6
2
10
28
29
30
27
36
37
38
35
52
53
54
51
8
44
45
46
43
71
72
73
74
64
65
66
63
-1
EOF
